unknown
(model
; cardinality of BoundSet is 7
(declare-sort BoundSet 0)
; rep: @uc_BoundSet_0
; rep: @uc_BoundSet_1
; rep: @uc_BoundSet_2
; rep: @uc_BoundSet_3
; rep: @uc_BoundSet_4
; rep: @uc_BoundSet_5
; rep: @uc_BoundSet_6
; cardinality of UnboundSet is 1
(declare-sort UnboundSet 0)
(declare-fun groundTerm_8 () UnboundSet)
(define-fun IsInSuit ((BOUND_VARIABLE_620 BoundSet)) Bool true)
(define-fun IsCheering ((BOUND_VARIABLE_620 BoundSet)) Bool (ite (= @uc_BoundSet_5 BOUND_VARIABLE_620) true (= @uc_BoundSet_1 BOUND_VARIABLE_620)))
(define-fun IsInLibrary ((BOUND_VARIABLE_620 BoundSet)) Bool true)
(define-fun IsInFrontOf ((BOUND_VARIABLE_640 BoundSet) (BOUND_VARIABLE_641 BoundSet)) Bool true)
(define-fun IsNear ((BOUND_VARIABLE_640 BoundSet) (BOUND_VARIABLE_641 BoundSet)) Bool true)
)
unsat
(error "Cannot get model unless immediately preceded by SAT/NOT_ENTAILED or UNKNOWN response.")
